assets/logs/1_8x8_clingo/1_8x8_clingo.solution.log

---------------------------------
| 10| 31| 18| 56| 14| 15| 41|  1|
---------------------------------
| 20| 46| 12| 50| 39| 54| 23| 13|
---------------------------------
| 33|  8| 29| 16| 25| 43| 17| 47|
---------------------------------
| 44| 22| 48| 37| 52| 49| 11| 21|
---------------------------------
|  6| 35| 30| 27|  9| 19| 45| 51|
---------------------------------
| 24| 42|  7|  1| 32| 53|  1|  1|
---------------------------------
|  5|  4| 38| 28|  1|  1| 34| 55|
---------------------------------
| 40| 26|  3|  2| 36| 57|  0|  0|
---------------------------------

| n = 8 | k = 6 | coverage = 62, 96.875%
 Time 299.998
 Name 1_8x8_clingo

