assets/logs/1_8x8_clingo/1_8x8_clingo.log
clingo version 5.4.0
Reading from ...sets/logs/1_8x8_clingo/knights_tour.lp ...
Solving...
Answer: 1
occ(1,6,4) occ(1,6,7) occ(1,6,8) occ(1,7,6) occ(1,1,8) occ(1,7,5) occ(2,8,4) occ(3,8,3) coverage(6)
Optimization: -6
Answer: 2
occ(1,6,4) occ(1,6,7) occ(1,6,8) occ(1,7,6) occ(1,1,8) occ(1,7,5) occ(2,8,4) occ(3,8,3) coverage(7) occ(6,5,1) occ(4,7,2)
Optimization: -7
Answer: 3
occ(1,6,4) occ(1,6,7) occ(1,6,8) occ(1,7,6) occ(1,1,8) occ(1,7,5) occ(2,8,4) occ(3,8,3) coverage(21) occ(10,1,3) occ(11,1,2) occ(14,1,5) occ(19,1,6) occ(60,1,4) occ(16,2,7) occ(17,2,4) occ(44,2,3) occ(48,2,5) occ(58,2,6) occ(62,2,2) occ(8,3,2) occ(9,3,1) occ(12,3,4) occ(13,3,3) occ(32,3,8) occ(50,3,7) occ(15,4,5) occ(18,4,8) occ(34,4,6) occ(42,4,2) occ(46,4,4) occ(56,4,7) occ(6,5,1) occ(7,5,2) occ(20,5,6) occ(30,5,7) occ(36,5,4) occ(52,5,8) occ(24,6,5) occ(40,6,1) occ(54,6,6) occ(4,7,2) occ(5,7,1) occ(22,7,7) occ(28,7,8) occ(38,7,3) occ(26,8,6)
Optimization: -21
Answer: 4
occ(1,6,4) occ(1,6,7) occ(1,6,8) occ(1,7,6) occ(1,1,8) occ(1,7,5) occ(2,8,4) occ(3,8,3) coverage(27) occ(16,1,6) occ(25,1,5) occ(40,1,4) occ(52,1,2) occ(18,2,8) occ(19,2,5) occ(23,2,7) occ(38,2,2) occ(42,2,6) occ(50,2,4) occ(56,2,3) occ(8,3,2) occ(14,3,5) occ(17,3,7) occ(30,3,3) occ(44,3,8) occ(48,3,6) occ(54,3,1) occ(10,4,4) occ(20,4,7) occ(21,4,6) occ(28,4,1) occ(36,4,3) occ(58,4,2) occ(6,5,1) occ(7,5,2) occ(12,5,6) occ(15,5,8) occ(22,5,5) occ(26,5,3) occ(32,5,4) occ(46,5,7) occ(34,6,2) occ(60,6,1) occ(4,7,2) occ(5,7,1) occ(9,7,3) occ(13,7,7) occ(24,7,4) occ(11,8,5) occ(62,8,2)
Optimization: -27
Answer: 5
occ(1,6,4) occ(1,6,7) occ(1,6,8) occ(1,7,6) occ(1,1,8) occ(1,7,5) occ(2,8,4) occ(3,8,3) coverage(37) occ(16,1,6) occ(25,1,5) occ(40,1,4) occ(52,1,2) occ(58,1,1) occ(18,2,8) occ(19,2,5) occ(23,2,7) occ(38,2,2) occ(42,2,6) occ(50,2,4) occ(56,2,3) occ(8,3,2) occ(14,3,5) occ(17,3,7) occ(27,3,4) occ(30,3,3) occ(44,3,8) occ(48,3,6) occ(54,3,1) occ(10,4,4) occ(20,4,7) occ(21,4,6) occ(28,4,1) occ(29,4,2) occ(36,4,3) occ(6,5,1) occ(7,5,2) occ(12,5,6) occ(15,5,8) occ(22,5,5) occ(26,5,3) occ(32,5,4) occ(46,5,7) occ(31,6,3) occ(34,6,2) occ(35,6,1) occ(4,7,2) occ(5,7,1) occ(9,7,3) occ(13,7,7) occ(24,7,4) occ(11,8,5) occ(33,8,2)
Optimization: -37
Answer: 6
occ(1,6,4) occ(1,6,7) occ(1,6,8) occ(1,7,6) occ(1,1,8) occ(1,7,5) occ(2,8,4) occ(3,8,3) coverage(39) occ(16,1,6) occ(25,1,5) occ(33,1,3) occ(37,1,1) occ(40,1,4) occ(52,1,2) occ(18,2,8) occ(19,2,5) occ(23,2,7) occ(31,2,1) occ(38,2,2) occ(42,2,6) occ(50,2,4) occ(56,2,3) occ(14,3,5) occ(17,3,7) occ(27,3,4) occ(30,3,3) occ(35,3,2) occ(44,3,8) occ(48,3,6) occ(54,3,1) occ(10,4,4) occ(20,4,7) occ(21,4,6) occ(28,4,1) occ(29,4,2) occ(36,4,3) occ(6,5,1) occ(7,5,2) occ(12,5,6) occ(15,5,8) occ(22,5,5) occ(26,5,3) occ(32,5,4) occ(46,5,7) occ(8,6,3) occ(34,6,2) occ(4,7,2) occ(5,7,1) occ(9,7,3) occ(13,7,7) occ(24,7,4) occ(11,8,5)
Optimization: -39
Answer: 7
occ(1,6,4) occ(1,6,7) occ(1,6,8) occ(1,7,6) occ(1,1,8) occ(1,7,5) occ(2,8,4) occ(3,8,3) coverage(41) occ(16,1,6) occ(25,1,5) occ(29,1,3) occ(40,1,4) occ(52,1,2) occ(18,2,8) occ(19,2,5) occ(23,2,7) occ(31,2,1) occ(38,2,2) occ(42,2,6) occ(50,2,4) occ(56,2,3) occ(8,3,2) occ(14,3,5) occ(17,3,7) occ(27,3,4) occ(30,3,3) occ(44,3,8) occ(48,3,6) occ(54,3,1) occ(10,4,4) occ(20,4,7) occ(21,4,6) occ(28,4,1) occ(33,4,2) occ(36,4,3) occ(6,5,1) occ(7,5,2) occ(12,5,6) occ(15,5,8) occ(22,5,5) occ(26,5,3) occ(32,5,4) occ(46,5,7) occ(34,6,2) occ(35,6,1) occ(39,6,3) occ(4,7,2) occ(5,7,1) occ(9,7,3) occ(13,7,7) occ(24,7,4) occ(11,8,5) occ(37,8,2)
Optimization: -41
Answer: 8
occ(1,6,4) occ(1,6,7) occ(1,6,8) occ(1,7,6) occ(1,1,8) occ(1,7,5) occ(2,8,4) occ(3,8,3) coverage(43) occ(16,1,6) occ(25,1,5) occ(33,1,3) occ(37,1,1) occ(40,1,4) occ(18,2,8) occ(19,2,5) occ(23,2,7) occ(31,2,1) occ(38,2,2) occ(39,2,3) occ(42,2,6) occ(50,2,4) occ(14,3,5) occ(17,3,7) occ(27,3,4) occ(30,3,3) occ(35,3,2) occ(41,3,1) occ(44,3,8) occ(48,3,6) occ(10,4,4) occ(20,4,7) occ(21,4,6) occ(28,4,1) occ(29,4,2) occ(36,4,3) occ(52,4,5) occ(6,5,1) occ(7,5,2) occ(12,5,6) occ(15,5,8) occ(22,5,5) occ(26,5,3) occ(32,5,4) occ(46,5,7) occ(8,6,3) occ(34,6,2) occ(54,6,6) occ(4,7,2) occ(5,7,1) occ(9,7,3) occ(13,7,7) occ(24,7,4) occ(56,7,8) occ(11,8,5) occ(58,8,6)
Optimization: -43
Answer: 9
occ(1,6,4) occ(1,6,7) occ(1,6,8) occ(1,7,6) occ(1,1,8) occ(1,7,5) occ(2,8,4) occ(3,8,3) coverage(45) occ(16,1,6) occ(25,1,5) occ(33,1,3) occ(37,1,1) occ(40,1,4) occ(43,1,2) occ(18,2,8) occ(19,2,5) occ(23,2,7) occ(31,2,1) occ(38,2,2) occ(39,2,3) occ(42,2,6) occ(50,2,4) occ(14,3,5) occ(17,3,7) occ(27,3,4) occ(30,3,3) occ(35,3,2) occ(41,3,1) occ(44,3,8) occ(48,3,6) occ(10,4,4) occ(20,4,7) occ(21,4,6) occ(28,4,1) occ(29,4,2) occ(36,4,3) occ(52,4,5) occ(6,5,1) occ(7,5,2) occ(12,5,6) occ(15,5,8) occ(22,5,5) occ(26,5,3) occ(32,5,4) occ(46,5,7) occ(8,6,3) occ(34,6,2) occ(54,6,6) occ(4,7,2) occ(5,7,1) occ(9,7,3) occ(13,7,7) occ(24,7,4) occ(56,7,8) occ(11,8,5) occ(58,8,6)
Optimization: -45
Answer: 10
occ(1,6,4) occ(1,6,7) occ(1,6,8) occ(1,7,6) occ(1,1,8) occ(1,7,5) occ(2,8,4) occ(3,8,3) coverage(47) occ(10,1,1) occ(16,1,6) occ(25,1,5) occ(40,1,4) occ(52,1,2) occ(12,2,3) occ(18,2,8) occ(19,2,5) occ(23,2,7) occ(38,2,2) occ(42,2,6) occ(50,2,4) occ(8,3,2) occ(14,3,5) occ(17,3,7) occ(27,3,4) occ(30,3,3) occ(44,3,8) occ(48,3,6) occ(54,3,1) occ(20,4,7) occ(21,4,6) occ(28,4,1) occ(29,4,2) occ(36,4,3) occ(37,4,4) occ(45,4,8) occ(6,5,1) occ(7,5,2) occ(15,5,8) occ(22,5,5) occ(26,5,3) occ(32,5,4) occ(43,5,6) occ(46,5,7) occ(13,6,6) occ(31,6,1) occ(34,6,2) occ(35,6,3) occ(39,6,5) occ(4,7,2) occ(5,7,1) occ(9,7,3) occ(24,7,4) occ(41,7,7) occ(11,8,5) occ(33,8,2)
Optimization: -47
Answer: 11
occ(1,6,4) occ(1,6,7) occ(1,6,8) occ(1,7,6) occ(1,1,8) occ(1,7,5) occ(2,8,4) occ(3,8,3) coverage(51) occ(10,1,1) occ(16,1,6) occ(25,1,5) occ(29,1,3) occ(40,1,4) occ(52,1,2) occ(12,2,3) occ(18,2,8) occ(19,2,5) occ(23,2,7) occ(31,2,1) occ(38,2,2) occ(42,2,6) occ(50,2,4) occ(8,3,2) occ(14,3,5) occ(17,3,7) occ(27,3,4) occ(30,3,3) occ(44,3,8) occ(48,3,6) occ(54,3,1) occ(20,4,7) occ(21,4,6) occ(28,4,1) occ(33,4,2) occ(36,4,3) occ(41,4,4) occ(6,5,1) occ(7,5,2) occ(15,5,8) occ(22,5,5) occ(26,5,3) occ(32,5,4) occ(46,5,7) occ(34,6,2) occ(35,6,1) occ(39,6,3) occ(43,6,5) occ(49,6,6) occ(4,7,2) occ(5,7,1) occ(9,7,3) occ(13,7,7) occ(24,7,4) occ(47,7,8) occ(11,8,5) occ(37,8,2) occ(45,8,6)
Optimization: -51
Answer: 12
occ(1,6,4) occ(1,6,7) occ(1,6,8) occ(1,7,6) occ(1,1,8) occ(1,7,5) occ(2,8,4) occ(3,8,3) coverage(52) occ(10,1,1) occ(16,1,6) occ(25,1,5) occ(29,1,3) occ(40,1,4) occ(12,2,3) occ(18,2,8) occ(19,2,5) occ(23,2,7) occ(31,2,1) occ(38,2,2) occ(42,2,6) occ(50,2,4) occ(8,3,2) occ(14,3,5) occ(17,3,7) occ(27,3,4) occ(30,3,3) occ(44,3,8) occ(48,3,6) occ(9,4,4) occ(20,4,7) occ(21,4,6) occ(28,4,1) occ(33,4,2) occ(36,4,3) occ(6,5,1) occ(7,5,2) occ(11,5,6) occ(15,5,8) occ(22,5,5) occ(26,5,3) occ(32,5,4) occ(46,5,7) occ(34,6,2) occ(35,6,3) occ(39,6,1) occ(43,6,5) occ(49,6,6) occ(4,7,2) occ(5,7,1) occ(13,7,7) occ(24,7,4) occ(41,7,3) occ(47,7,8) occ(37,8,2) occ(45,8,6) occ(51,8,5)
Optimization: -52
Answer: 13
occ(1,6,4) occ(1,6,7) occ(1,6,8) occ(1,7,6) occ(1,1,8) occ(1,7,5) occ(2,8,4) occ(3,8,3) coverage(53) occ(10,1,1) occ(16,1,6) occ(25,1,5) occ(29,1,3) occ(40,1,4) occ(52,1,2) occ(12,2,3) occ(18,2,8) occ(19,2,5) occ(23,2,7) occ(31,2,1) occ(38,2,2) occ(42,2,6) occ(50,2,4) occ(8,3,2) occ(14,3,5) occ(17,3,7) occ(27,3,4) occ(30,3,3) occ(44,3,8) occ(48,3,6) occ(54,3,1) occ(9,4,4) occ(20,4,7) occ(21,4,6) occ(28,4,1) occ(33,4,2) occ(36,4,3) occ(6,5,1) occ(7,5,2) occ(11,5,6) occ(15,5,8) occ(22,5,5) occ(26,5,3) occ(32,5,4) occ(46,5,7) occ(34,6,2) occ(35,6,3) occ(39,6,1) occ(43,6,5) occ(49,6,6) occ(4,7,2) occ(5,7,1) occ(13,7,7) occ(24,7,4) occ(41,7,3) occ(47,7,8) occ(37,8,2) occ(45,8,6) occ(51,8,5)
Optimization: -53
Answer: 14
occ(1,6,4) occ(1,6,7) occ(1,6,8) occ(1,7,6) occ(1,1,8) occ(1,7,5) occ(2,8,4) occ(3,8,3) coverage(55) occ(14,1,5) occ(31,1,6) occ(41,1,7) occ(44,1,4) occ(45,1,3) occ(52,1,2) occ(53,1,1) occ(16,2,7) occ(29,2,4) occ(38,2,8) occ(42,2,6) occ(43,2,5) occ(46,2,2) occ(47,2,1) occ(51,2,3) occ(8,3,2) occ(12,3,4) occ(22,3,5) occ(33,3,7) occ(36,3,6) occ(39,3,8) occ(50,3,3) occ(54,3,1) occ(18,4,8) occ(27,4,5) occ(28,4,3) occ(34,4,4) occ(37,4,6) occ(40,4,7) occ(48,4,1) occ(49,4,2) occ(6,5,1) occ(7,5,2) occ(10,5,3) occ(20,5,6) occ(24,5,4) occ(25,5,7) occ(30,5,5) occ(35,5,8) occ(11,6,1) occ(17,6,6) occ(23,6,5) occ(26,6,2) occ(32,6,3) occ(4,7,2) occ(5,7,1) occ(9,7,3) occ(15,7,4) occ(21,7,7) occ(13,8,2) occ(19,8,5)
Optimization: -55
Answer: 15
occ(1,6,4) occ(1,6,7) occ(1,6,8) occ(1,7,6) occ(1,1,8) occ(1,7,5) occ(2,8,4) occ(3,8,3) coverage(56) occ(13,1,3) occ(16,1,2) occ(31,1,6) occ(44,1,4) occ(50,1,5) occ(54,1,1) occ(15,2,1) occ(29,2,8) occ(34,2,4) occ(35,2,5) occ(42,2,6) occ(46,2,2) occ(47,2,7) occ(52,2,3) occ(11,3,2) occ(14,3,1) occ(18,3,3) occ(33,3,7) occ(36,3,6) occ(40,3,8) occ(48,3,4) occ(49,3,5) occ(9,4,4) occ(12,4,3) occ(17,4,2) occ(20,4,1) occ(27,4,7) occ(32,4,5) occ(37,4,6) occ(45,4,8) occ(6,5,3) occ(7,5,2) occ(10,5,1) occ(25,5,5) occ(38,5,7) occ(39,5,8) occ(43,5,6) occ(51,5,4) occ(4,6,5) occ(19,6,1) occ(22,6,2) occ(23,6,3) occ(30,6,6) occ(5,7,1) occ(8,7,2) occ(24,7,4) occ(28,7,8) occ(41,7,7) occ(53,7,3) occ(21,8,2) occ(26,8,6) occ(55,8,5)
Optimization: -56
Answer: 16
occ(1,6,4) occ(1,6,7) occ(1,6,8) occ(1,7,6) occ(1,1,8) occ(1,7,5) occ(2,8,4) occ(3,8,3) coverage(57) occ(10,1,1) occ(11,1,2) occ(15,1,6) occ(25,1,3) occ(26,1,5) occ(29,1,7) occ(55,1,4) occ(12,2,3) occ(13,2,4) occ(23,2,1) occ(27,2,5) occ(28,2,7) occ(33,2,6) occ(53,2,2) occ(8,3,2) occ(9,3,1) occ(17,3,7) occ(21,3,3) occ(24,3,6) occ(31,3,8) occ(35,3,4) occ(42,3,5) occ(14,4,4) occ(19,4,5) occ(30,4,8) occ(37,4,2) occ(38,4,6) occ(44,4,7) occ(51,4,1) occ(56,4,3) occ(6,5,1) occ(7,5,2) occ(22,5,7) occ(32,5,6) occ(36,5,8) occ(40,5,4) occ(45,5,5) occ(49,5,3) occ(16,6,5) occ(39,6,1) occ(43,6,3) occ(46,6,6) occ(54,6,2) occ(4,7,2) occ(5,7,1) occ(20,7,8) occ(34,7,7) occ(47,7,4) occ(50,7,3) occ(18,8,6) occ(41,8,2) occ(48,8,5) occ(52,8,1)
Optimization: -57
Answer: 17
occ(1,6,4) occ(1,6,7) occ(1,6,8) occ(1,7,6) occ(1,1,8) occ(1,7,5) occ(2,8,4) occ(3,8,3) coverage(58) occ(10,1,1) occ(14,1,5) occ(15,1,6) occ(18,1,3) occ(31,1,2) occ(41,1,7) occ(56,1,4) occ(12,2,3) occ(13,2,8) occ(20,2,1) occ(23,2,7) occ(39,2,5) occ(46,2,2) occ(50,2,4) occ(54,2,6) occ(8,3,2) occ(16,3,4) occ(17,3,7) occ(25,3,5) occ(29,3,3) occ(33,3,1) occ(43,3,6) occ(47,3,8) occ(11,4,7) occ(21,4,8) occ(22,4,2) occ(37,4,4) occ(44,4,1) occ(48,4,3) occ(49,4,6) occ(52,4,5) occ(6,5,1) occ(9,5,5) occ(19,5,6) occ(27,5,4) occ(30,5,3) occ(35,5,2) occ(45,5,7) occ(51,5,8) occ(7,6,3) occ(24,6,1) occ(32,6,5) occ(42,6,2) occ(53,6,6) occ(4,7,2) occ(5,7,1) occ(28,7,4) occ(34,7,7) occ(38,7,3) occ(55,7,8) occ(26,8,2) occ(36,8,5) occ(40,8,1) occ(57,8,6)
Optimization: -58
*** Info : (clingo): INTERRUPTED by signal!
SATISFIABLE

TIME LIMIT   : 1
Models       : 17+
  Optimum    : unknown
Optimization : -58
Calls        : 1
Time         : 300.000s (Solving: 299.69s 1st Model: 0.00s Unsat: 0.00s)
CPU Time     : 299.998s
